Maximize

2045.0 x_0 + 340.0 x_1 + 1245.0 x_2 + 1337.0 x_3 + 1882.0 x_4 + 1647.0 x_5 + 2690.0 x_6 + 1820.0 x_7 + 2062.0 x_8 + 1245.0 x_9 + 390.0 x_10 + 1585.0 x_11 + 2625.0 x_12 + 1435.0 x_13 + 630.0 x_14


Subject To

a0: 399 x_0 + 60 x_1 + 303 x_2 + 269 x_3 + 419 x_4 + 315 x_5 + 521 x_6 + 357 x_7 + 433 x_8 + 239 x_9 + 104 x_10 + 235 x_11 + 538 x_12 + 383 x_13 + 124 x_14 <= 1940
b0: 415 x_0 + 72 x_1 + 191 x_2 + 262 x_3 + 330 x_4 + 340 x_5 + 551 x_6 + 367 x_7 + 388 x_8 + 255 x_9 + 48 x_10 + 395 x_11 + 508 x_12 + 187 x_13 + 124 x_14 <= 1800



Bounds


x_0 <= 2
x_1 <= 5
x_2 <= 4
x_3 <= 2
x_4 <= 2
x_5 <= 2
x_6 <= 2
x_7 <= 2
x_8 <= 2
x_9 <= 4
x_10 <= 4
x_11 <= 3
x_12 <= 2
x_13 <= 2
x_14 <= 4




General

 x_0 x_1 x_2 x_3 x_4 x_5 x_6 x_7 x_8 x_9 x_10 x_11 x_12 x_13 x_14



End
